c Random CNF formula
p cnf 200 45
35 -110 51 0
95 57 -70 0
-146 193 174 0
194 -73 52 0
-32 -112 -83 0
-162 165 191 0
20 -17 -145 0
-3 61 90 0
-68 -167 -16 0
-105 15 84 0
-196 162 136 0
168 -56 34 0
-51 -145 -98 0
-166 1 19 0
190 -142 189 0
136 137 -107 0
71 -182 176 0
-105 77 -72 0
-97 -35 -16 0
-66 38 -174 0
-188 -8 -115 0
-165 5 -184 0
-70 -84 37 0
161 108 -84 0
-143 34 177 0
-135 -54 -27 0
-179 31 22 0
-144 -106 -171 0
-110 35 -10 0
-161 47 181 0
-94 153 9 0
74 104 -193 0
-20 104 153 0
144 -94 36 0
148 199 87 0
-63 -79 109 0
-85 41 -29 0
-83 122 -186 0
96 187 -99 0
-90 -4 -44 0
105 -144 177 0
32 -63 -87 0
-76 -29 195 0
-138 -104 -149 0
-10 -61 193 0
